c Problem in subdirectory
c Tests recursive file discovery
c 8 variables, 15 clauses
c This is a satisfiable instance
p cnf 8 15
1 -2 0
2 3 -4 0
-1 4 5 0
5 -6 7 0
-3 6 8 0
-5 -7 1 0
4 -8 2 0
-2 -4 -6 0
3 7 -1 0
6 -5 4 0
-7 8 -3 0
1 2 3 0
-4 -5 -6 0
7 8 1 0
-8 -1 2 0